[[98, 97, 96, 87, 95, 86, 85, 94, 84, 93, 92, 91, 82, 83, 73, 76, 75, 74, 66, 77, 68, 67, 59, 58, 49, 57, 56, 65, 64, 55, 46, 47, 48], [39, 40, 38, 29, 37, 28, 30, 19, 21, 22, 20, 11, 10, 2, 12, 3, 4, 14, 13, 23, 24, 25, 15, 16, 5, 6, 7, 8, 9, 18], [17, 27, 26, 35, 36, 44, 45, 34, 43, 33, 31, 32, 41, 42, 50, 51, 60, 52, 53, 54, 63, 62, 61, 72, 71, 70, 69, 78, 80, 81, 79, 88, 89, 90, 99]]